p cnf 420 1900
1 13 0
-1 -13 0
2 14 0
-2 -14 0
3 15 0
-3 -15 0
4 25 0
-4 -25 0
5 26 0
-5 -26 0
6 27 0
-6 -27 0
7 37 0
-7 -37 0
8 38 0
-8 -38 0
9 39 0
-9 -39 0
10 49 0
-10 -49 0
11 50 0
-11 -50 0
12 51 0
-12 -51 0
16 28 0
-16 -28 0
17 29 0
-17 -29 0
18 30 0
-18 -30 0
19 40 0
-19 -40 0
20 41 0
-20 -41 0
21 42 0
-21 -42 0
22 52 0
-22 -52 0
23 53 0
-23 -53 0
24 54 0
-24 -54 0
31 43 0
-31 -43 0
32 44 0
-32 -44 0
33 45 0
-33 -45 0
34 55 0
-34 -55 0
35 56 0
-35 -56 0
36 57 0
-36 -57 0
46 58 0
-46 -58 0
47 59 0
-47 -59 0
48 60 0
-48 -60 0
-1 16 0
1 -16 0
-16 25 0
16 -25 0
-2 19 0
2 -19 0
-19 37 0
19 -37 0
-3 22 0
3 -22 0
-22 49 0
22 -49 0
-5 31 0
5 -31 0
-31 38 0
31 -38 0
-6 34 0
6 -34 0
-34 50 0
34 -50 0
-9 46 0
9 -46 0
-46 51 0
46 -51 0
-17 32 0
17 -32 0
-32 41 0
32 -41 0
-18 35 0
18 -35 0
-35 53 0
35 -53 0
-21 47 0
21 -47 0
-47 54 0
47 -54 0
-33 48 0
33 -48 0
-48 57 0
48 -57 0
-61 -1 9 0
-61 -9 1 0
61 1 9 0
61 -1 -9 0
-62 -2 6 0
-62 -6 2 0
62 2 6 0
62 -2 -6 0
-63 -3 5 0
-63 -5 3 0
63 3 5 0
63 -3 -5 0
61 62 63 0
-61 -62 -63 0
-64 -1 12 0
-64 -12 1 0
64 1 12 0
64 -1 -12 0
-65 -3 5 0
-65 -5 3 0
65 3 5 0
65 -3 -5 0
-66 -2 6 0
-66 -6 2 0
66 2 6 0
66 -2 -6 0
64 65 66 0
-64 -65 -66 0
-67 -2 6 0
-67 -6 2 0
67 2 6 0
67 -2 -6 0
-68 -1 9 0
-68 -9 1 0
68 1 9 0
68 -1 -9 0
-69 -3 8 0
-69 -8 3 0
69 3 8 0
69 -3 -8 0
67 68 69 0
-67 -68 -69 0
-70 -2 11 0
-70 -11 2 0
70 2 11 0
70 -2 -11 0
-71 -3 8 0
-71 -8 3 0
71 3 8 0
71 -3 -8 0
-72 -1 9 0
-72 -9 1 0
72 1 9 0
72 -1 -9 0
70 71 72 0
-70 -71 -72 0
-73 -3 5 0
-73 -5 3 0
73 3 5 0
73 -3 -5 0
-74 -1 12 0
-74 -12 1 0
74 1 12 0
74 -1 -12 0
-75 -2 11 0
-75 -11 2 0
75 2 11 0
75 -2 -11 0
73 74 75 0
-73 -74 -75 0
-76 -3 8 0
-76 -8 3 0
76 3 8 0
76 -3 -8 0
-77 -2 11 0
-77 -11 2 0
77 2 11 0
77 -2 -11 0
-78 -1 12 0
-78 -12 1 0
78 1 12 0
78 -1 -12 0
76 77 78 0
-76 -77 -78 0
-79 -4 9 0
-79 -9 4 0
79 4 9 0
79 -4 -9 0
-80 -5 3 0
-80 -3 5 0
80 5 3 0
80 -5 -3 0
-81 -6 2 0
-81 -2 6 0
81 6 2 0
81 -6 -2 0
79 80 81 0
-79 -80 -81 0
-82 -4 12 0
-82 -12 4 0
82 4 12 0
82 -4 -12 0
-83 -6 2 0
-83 -2 6 0
83 6 2 0
83 -6 -2 0
-84 -5 3 0
-84 -3 5 0
84 5 3 0
84 -5 -3 0
82 83 84 0
-82 -83 -84 0
-85 -5 3 0
-85 -3 5 0
85 5 3 0
85 -5 -3 0
-86 -4 9 0
-86 -9 4 0
86 4 9 0
86 -4 -9 0
-87 -6 7 0
-87 -7 6 0
87 6 7 0
87 -6 -7 0
85 86 87 0
-85 -86 -87 0
-88 -5 10 0
-88 -10 5 0
88 5 10 0
88 -5 -10 0
-89 -6 7 0
-89 -7 6 0
89 6 7 0
89 -6 -7 0
-90 -4 9 0
-90 -9 4 0
90 4 9 0
90 -4 -9 0
88 89 90 0
-88 -89 -90 0
-91 -6 2 0
-91 -2 6 0
91 6 2 0
91 -6 -2 0
-92 -4 12 0
-92 -12 4 0
92 4 12 0
92 -4 -12 0
-93 -5 10 0
-93 -10 5 0
93 5 10 0
93 -5 -10 0
91 92 93 0
-91 -92 -93 0
-94 -6 7 0
-94 -7 6 0
94 6 7 0
94 -6 -7 0
-95 -5 10 0
-95 -10 5 0
95 5 10 0
95 -5 -10 0
-96 -4 12 0
-96 -12 4 0
96 4 12 0
96 -4 -12 0
94 95 96 0
-94 -95 -96 0
-97 -7 6 0
-97 -6 7 0
97 7 6 0
97 -7 -6 0
-98 -8 3 0
-98 -3 8 0
98 8 3 0
98 -8 -3 0
-99 -9 1 0
-99 -1 9 0
99 9 1 0
99 -9 -1 0
97 98 99 0
-97 -98 -99 0
-100 -7 11 0
-100 -11 7 0
100 7 11 0
100 -7 -11 0
-101 -9 1 0
-101 -1 9 0
101 9 1 0
101 -9 -1 0
-102 -8 3 0
-102 -3 8 0
102 8 3 0
102 -8 -3 0
100 101 102 0
-100 -101 -102 0
-103 -8 3 0
-103 -3 8 0
103 8 3 0
103 -8 -3 0
-104 -7 6 0
-104 -6 7 0
104 7 6 0
104 -7 -6 0
-105 -9 4 0
-105 -4 9 0
105 9 4 0
105 -9 -4 0
103 104 105 0
-103 -104 -105 0
-106 -8 10 0
-106 -10 8 0
106 8 10 0
106 -8 -10 0
-107 -9 4 0
-107 -4 9 0
107 9 4 0
107 -9 -4 0
-108 -7 6 0
-108 -6 7 0
108 7 6 0
108 -7 -6 0
106 107 108 0
-106 -107 -108 0
-109 -9 1 0
-109 -1 9 0
109 9 1 0
109 -9 -1 0
-110 -7 11 0
-110 -11 7 0
110 7 11 0
110 -7 -11 0
-111 -8 10 0
-111 -10 8 0
111 8 10 0
111 -8 -10 0
109 110 111 0
-109 -110 -111 0
-112 -9 4 0
-112 -4 9 0
112 9 4 0
112 -9 -4 0
-113 -8 10 0
-113 -10 8 0
113 8 10 0
113 -8 -10 0
-114 -7 11 0
-114 -11 7 0
114 7 11 0
114 -7 -11 0
112 113 114 0
-112 -113 -114 0
-115 -10 5 0
-115 -5 10 0
115 10 5 0
115 -10 -5 0
-116 -11 2 0
-116 -2 11 0
116 11 2 0
116 -11 -2 0
-117 -12 1 0
-117 -1 12 0
117 12 1 0
117 -12 -1 0
115 116 117 0
-115 -116 -117 0
-118 -10 8 0
-118 -8 10 0
118 10 8 0
118 -10 -8 0
-119 -12 1 0
-119 -1 12 0
119 12 1 0
119 -12 -1 0
-120 -11 2 0
-120 -2 11 0
120 11 2 0
120 -11 -2 0
118 119 120 0
-118 -119 -120 0
-121 -11 2 0
-121 -2 11 0
121 11 2 0
121 -11 -2 0
-122 -10 5 0
-122 -5 10 0
122 10 5 0
122 -10 -5 0
-123 -12 4 0
-123 -4 12 0
123 12 4 0
123 -12 -4 0
121 122 123 0
-121 -122 -123 0
-124 -11 7 0
-124 -7 11 0
124 11 7 0
124 -11 -7 0
-125 -12 4 0
-125 -4 12 0
125 12 4 0
125 -12 -4 0
-126 -10 5 0
-126 -5 10 0
126 10 5 0
126 -10 -5 0
124 125 126 0
-124 -125 -126 0
-127 -12 1 0
-127 -1 12 0
127 12 1 0
127 -12 -1 0
-128 -10 8 0
-128 -8 10 0
128 10 8 0
128 -10 -8 0
-129 -11 7 0
-129 -7 11 0
129 11 7 0
129 -11 -7 0
127 128 129 0
-127 -128 -129 0
-130 -12 4 0
-130 -4 12 0
130 12 4 0
130 -12 -4 0
-131 -11 7 0
-131 -7 11 0
131 11 7 0
131 -11 -7 0
-132 -10 8 0
-132 -8 10 0
132 10 8 0
132 -10 -8 0
130 131 132 0
-130 -131 -132 0
-133 -13 21 0
-133 -21 13 0
133 13 21 0
133 -13 -21 0
-134 -14 18 0
-134 -18 14 0
134 14 18 0
134 -14 -18 0
-135 -15 17 0
-135 -17 15 0
135 15 17 0
135 -15 -17 0
133 134 135 0
-133 -134 -135 0
-136 -13 24 0
-136 -24 13 0
136 13 24 0
136 -13 -24 0
-137 -15 17 0
-137 -17 15 0
137 15 17 0
137 -15 -17 0
-138 -14 18 0
-138 -18 14 0
138 14 18 0
138 -14 -18 0
136 137 138 0
-136 -137 -138 0
-139 -14 18 0
-139 -18 14 0
139 14 18 0
139 -14 -18 0
-140 -13 21 0
-140 -21 13 0
140 13 21 0
140 -13 -21 0
-141 -15 20 0
-141 -20 15 0
141 15 20 0
141 -15 -20 0
139 140 141 0
-139 -140 -141 0
-142 -14 23 0
-142 -23 14 0
142 14 23 0
142 -14 -23 0
-143 -15 20 0
-143 -20 15 0
143 15 20 0
143 -15 -20 0
-144 -13 21 0
-144 -21 13 0
144 13 21 0
144 -13 -21 0
142 143 144 0
-142 -143 -144 0
-145 -15 17 0
-145 -17 15 0
145 15 17 0
145 -15 -17 0
-146 -13 24 0
-146 -24 13 0
146 13 24 0
146 -13 -24 0
-147 -14 23 0
-147 -23 14 0
147 14 23 0
147 -14 -23 0
145 146 147 0
-145 -146 -147 0
-148 -15 20 0
-148 -20 15 0
148 15 20 0
148 -15 -20 0
-149 -14 23 0
-149 -23 14 0
149 14 23 0
149 -14 -23 0
-150 -13 24 0
-150 -24 13 0
150 13 24 0
150 -13 -24 0
148 149 150 0
-148 -149 -150 0
-151 -16 21 0
-151 -21 16 0
151 16 21 0
151 -16 -21 0
-152 -17 15 0
-152 -15 17 0
152 17 15 0
152 -17 -15 0
-153 -18 14 0
-153 -14 18 0
153 18 14 0
153 -18 -14 0
151 152 153 0
-151 -152 -153 0
-154 -16 24 0
-154 -24 16 0
154 16 24 0
154 -16 -24 0
-155 -18 14 0
-155 -14 18 0
155 18 14 0
155 -18 -14 0
-156 -17 15 0
-156 -15 17 0
156 17 15 0
156 -17 -15 0
154 155 156 0
-154 -155 -156 0
-157 -17 15 0
-157 -15 17 0
157 17 15 0
157 -17 -15 0
-158 -16 21 0
-158 -21 16 0
158 16 21 0
158 -16 -21 0
-159 -18 19 0
-159 -19 18 0
159 18 19 0
159 -18 -19 0
157 158 159 0
-157 -158 -159 0
-160 -17 22 0
-160 -22 17 0
160 17 22 0
160 -17 -22 0
-161 -18 19 0
-161 -19 18 0
161 18 19 0
161 -18 -19 0
-162 -16 21 0
-162 -21 16 0
162 16 21 0
162 -16 -21 0
160 161 162 0
-160 -161 -162 0
-163 -18 14 0
-163 -14 18 0
163 18 14 0
163 -18 -14 0
-164 -16 24 0
-164 -24 16 0
164 16 24 0
164 -16 -24 0
-165 -17 22 0
-165 -22 17 0
165 17 22 0
165 -17 -22 0
163 164 165 0
-163 -164 -165 0
-166 -18 19 0
-166 -19 18 0
166 18 19 0
166 -18 -19 0
-167 -17 22 0
-167 -22 17 0
167 17 22 0
167 -17 -22 0
-168 -16 24 0
-168 -24 16 0
168 16 24 0
168 -16 -24 0
166 167 168 0
-166 -167 -168 0
-169 -19 18 0
-169 -18 19 0
169 19 18 0
169 -19 -18 0
-170 -20 15 0
-170 -15 20 0
170 20 15 0
170 -20 -15 0
-171 -21 13 0
-171 -13 21 0
171 21 13 0
171 -21 -13 0
169 170 171 0
-169 -170 -171 0
-172 -19 23 0
-172 -23 19 0
172 19 23 0
172 -19 -23 0
-173 -21 13 0
-173 -13 21 0
173 21 13 0
173 -21 -13 0
-174 -20 15 0
-174 -15 20 0
174 20 15 0
174 -20 -15 0
172 173 174 0
-172 -173 -174 0
-175 -20 15 0
-175 -15 20 0
175 20 15 0
175 -20 -15 0
-176 -19 18 0
-176 -18 19 0
176 19 18 0
176 -19 -18 0
-177 -21 16 0
-177 -16 21 0
177 21 16 0
177 -21 -16 0
175 176 177 0
-175 -176 -177 0
-178 -20 22 0
-178 -22 20 0
178 20 22 0
178 -20 -22 0
-179 -21 16 0
-179 -16 21 0
179 21 16 0
179 -21 -16 0
-180 -19 18 0
-180 -18 19 0
180 19 18 0
180 -19 -18 0
178 179 180 0
-178 -179 -180 0
-181 -21 13 0
-181 -13 21 0
181 21 13 0
181 -21 -13 0
-182 -19 23 0
-182 -23 19 0
182 19 23 0
182 -19 -23 0
-183 -20 22 0
-183 -22 20 0
183 20 22 0
183 -20 -22 0
181 182 183 0
-181 -182 -183 0
-184 -21 16 0
-184 -16 21 0
184 21 16 0
184 -21 -16 0
-185 -20 22 0
-185 -22 20 0
185 20 22 0
185 -20 -22 0
-186 -19 23 0
-186 -23 19 0
186 19 23 0
186 -19 -23 0
184 185 186 0
-184 -185 -186 0
-187 -22 17 0
-187 -17 22 0
187 22 17 0
187 -22 -17 0
-188 -23 14 0
-188 -14 23 0
188 23 14 0
188 -23 -14 0
-189 -24 13 0
-189 -13 24 0
189 24 13 0
189 -24 -13 0
187 188 189 0
-187 -188 -189 0
-190 -22 20 0
-190 -20 22 0
190 22 20 0
190 -22 -20 0
-191 -24 13 0
-191 -13 24 0
191 24 13 0
191 -24 -13 0
-192 -23 14 0
-192 -14 23 0
192 23 14 0
192 -23 -14 0
190 191 192 0
-190 -191 -192 0
-193 -23 14 0
-193 -14 23 0
193 23 14 0
193 -23 -14 0
-194 -22 17 0
-194 -17 22 0
194 22 17 0
194 -22 -17 0
-195 -24 16 0
-195 -16 24 0
195 24 16 0
195 -24 -16 0
193 194 195 0
-193 -194 -195 0
-196 -23 19 0
-196 -19 23 0
196 23 19 0
196 -23 -19 0
-197 -24 16 0
-197 -16 24 0
197 24 16 0
197 -24 -16 0
-198 -22 17 0
-198 -17 22 0
198 22 17 0
198 -22 -17 0
196 197 198 0
-196 -197 -198 0
-199 -24 13 0
-199 -13 24 0
199 24 13 0
199 -24 -13 0
-200 -22 20 0
-200 -20 22 0
200 22 20 0
200 -22 -20 0
-201 -23 19 0
-201 -19 23 0
201 23 19 0
201 -23 -19 0
199 200 201 0
-199 -200 -201 0
-202 -24 16 0
-202 -16 24 0
202 24 16 0
202 -24 -16 0
-203 -23 19 0
-203 -19 23 0
203 23 19 0
203 -23 -19 0
-204 -22 20 0
-204 -20 22 0
204 22 20 0
204 -22 -20 0
202 203 204 0
-202 -203 -204 0
-205 -25 33 0
-205 -33 25 0
205 25 33 0
205 -25 -33 0
-206 -26 30 0
-206 -30 26 0
206 26 30 0
206 -26 -30 0
-207 -27 29 0
-207 -29 27 0
207 27 29 0
207 -27 -29 0
205 206 207 0
-205 -206 -207 0
-208 -25 36 0
-208 -36 25 0
208 25 36 0
208 -25 -36 0
-209 -27 29 0
-209 -29 27 0
209 27 29 0
209 -27 -29 0
-210 -26 30 0
-210 -30 26 0
210 26 30 0
210 -26 -30 0
208 209 210 0
-208 -209 -210 0
-211 -26 30 0
-211 -30 26 0
211 26 30 0
211 -26 -30 0
-212 -25 33 0
-212 -33 25 0
212 25 33 0
212 -25 -33 0
-213 -27 32 0
-213 -32 27 0
213 27 32 0
213 -27 -32 0
211 212 213 0
-211 -212 -213 0
-214 -26 35 0
-214 -35 26 0
214 26 35 0
214 -26 -35 0
-215 -27 32 0
-215 -32 27 0
215 27 32 0
215 -27 -32 0
-216 -25 33 0
-216 -33 25 0
216 25 33 0
216 -25 -33 0
214 215 216 0
-214 -215 -216 0
-217 -27 29 0
-217 -29 27 0
217 27 29 0
217 -27 -29 0
-218 -25 36 0
-218 -36 25 0
218 25 36 0
218 -25 -36 0
-219 -26 35 0
-219 -35 26 0
219 26 35 0
219 -26 -35 0
217 218 219 0
-217 -218 -219 0
-220 -27 32 0
-220 -32 27 0
220 27 32 0
220 -27 -32 0
-221 -26 35 0
-221 -35 26 0
221 26 35 0
221 -26 -35 0
-222 -25 36 0
-222 -36 25 0
222 25 36 0
222 -25 -36 0
220 221 222 0
-220 -221 -222 0
-223 -28 33 0
-223 -33 28 0
223 28 33 0
223 -28 -33 0
-224 -29 27 0
-224 -27 29 0
224 29 27 0
224 -29 -27 0
-225 -30 26 0
-225 -26 30 0
225 30 26 0
225 -30 -26 0
223 224 225 0
-223 -224 -225 0
-226 -28 36 0
-226 -36 28 0
226 28 36 0
226 -28 -36 0
-227 -30 26 0
-227 -26 30 0
227 30 26 0
227 -30 -26 0
-228 -29 27 0
-228 -27 29 0
228 29 27 0
228 -29 -27 0
226 227 228 0
-226 -227 -228 0
-229 -29 27 0
-229 -27 29 0
229 29 27 0
229 -29 -27 0
-230 -28 33 0
-230 -33 28 0
230 28 33 0
230 -28 -33 0
-231 -30 31 0
-231 -31 30 0
231 30 31 0
231 -30 -31 0
229 230 231 0
-229 -230 -231 0
-232 -29 34 0
-232 -34 29 0
232 29 34 0
232 -29 -34 0
-233 -30 31 0
-233 -31 30 0
233 30 31 0
233 -30 -31 0
-234 -28 33 0
-234 -33 28 0
234 28 33 0
234 -28 -33 0
232 233 234 0
-232 -233 -234 0
-235 -30 26 0
-235 -26 30 0
235 30 26 0
235 -30 -26 0
-236 -28 36 0
-236 -36 28 0
236 28 36 0
236 -28 -36 0
-237 -29 34 0
-237 -34 29 0
237 29 34 0
237 -29 -34 0
235 236 237 0
-235 -236 -237 0
-238 -30 31 0
-238 -31 30 0
238 30 31 0
238 -30 -31 0
-239 -29 34 0
-239 -34 29 0
239 29 34 0
239 -29 -34 0
-240 -28 36 0
-240 -36 28 0
240 28 36 0
240 -28 -36 0
238 239 240 0
-238 -239 -240 0
-241 -31 30 0
-241 -30 31 0
241 31 30 0
241 -31 -30 0
-242 -32 27 0
-242 -27 32 0
242 32 27 0
242 -32 -27 0
-243 -33 25 0
-243 -25 33 0
243 33 25 0
243 -33 -25 0
241 242 243 0
-241 -242 -243 0
-244 -31 35 0
-244 -35 31 0
244 31 35 0
244 -31 -35 0
-245 -33 25 0
-245 -25 33 0
245 33 25 0
245 -33 -25 0
-246 -32 27 0
-246 -27 32 0
246 32 27 0
246 -32 -27 0
244 245 246 0
-244 -245 -246 0
-247 -32 27 0
-247 -27 32 0
247 32 27 0
247 -32 -27 0
-248 -31 30 0
-248 -30 31 0
248 31 30 0
248 -31 -30 0
-249 -33 28 0
-249 -28 33 0
249 33 28 0
249 -33 -28 0
247 248 249 0
-247 -248 -249 0
-250 -32 34 0
-250 -34 32 0
250 32 34 0
250 -32 -34 0
-251 -33 28 0
-251 -28 33 0
251 33 28 0
251 -33 -28 0
-252 -31 30 0
-252 -30 31 0
252 31 30 0
252 -31 -30 0
250 251 252 0
-250 -251 -252 0
-253 -33 25 0
-253 -25 33 0
253 33 25 0
253 -33 -25 0
-254 -31 35 0
-254 -35 31 0
254 31 35 0
254 -31 -35 0
-255 -32 34 0
-255 -34 32 0
255 32 34 0
255 -32 -34 0
253 254 255 0
-253 -254 -255 0
-256 -33 28 0
-256 -28 33 0
256 33 28 0
256 -33 -28 0
-257 -32 34 0
-257 -34 32 0
257 32 34 0
257 -32 -34 0
-258 -31 35 0
-258 -35 31 0
258 31 35 0
258 -31 -35 0
256 257 258 0
-256 -257 -258 0
-259 -34 29 0
-259 -29 34 0
259 34 29 0
259 -34 -29 0
-260 -35 26 0
-260 -26 35 0
260 35 26 0
260 -35 -26 0
-261 -36 25 0
-261 -25 36 0
261 36 25 0
261 -36 -25 0
259 260 261 0
-259 -260 -261 0
-262 -34 32 0
-262 -32 34 0
262 34 32 0
262 -34 -32 0
-263 -36 25 0
-263 -25 36 0
263 36 25 0
263 -36 -25 0
-264 -35 26 0
-264 -26 35 0
264 35 26 0
264 -35 -26 0
262 263 264 0
-262 -263 -264 0
-265 -35 26 0
-265 -26 35 0
265 35 26 0
265 -35 -26 0
-266 -34 29 0
-266 -29 34 0
266 34 29 0
266 -34 -29 0
-267 -36 28 0
-267 -28 36 0
267 36 28 0
267 -36 -28 0
265 266 267 0
-265 -266 -267 0
-268 -35 31 0
-268 -31 35 0
268 35 31 0
268 -35 -31 0
-269 -36 28 0
-269 -28 36 0
269 36 28 0
269 -36 -28 0
-270 -34 29 0
-270 -29 34 0
270 34 29 0
270 -34 -29 0
268 269 270 0
-268 -269 -270 0
-271 -36 25 0
-271 -25 36 0
271 36 25 0
271 -36 -25 0
-272 -34 32 0
-272 -32 34 0
272 34 32 0
272 -34 -32 0
-273 -35 31 0
-273 -31 35 0
273 35 31 0
273 -35 -31 0
271 272 273 0
-271 -272 -273 0
-274 -36 28 0
-274 -28 36 0
274 36 28 0
274 -36 -28 0
-275 -35 31 0
-275 -31 35 0
275 35 31 0
275 -35 -31 0
-276 -34 32 0
-276 -32 34 0
276 34 32 0
276 -34 -32 0
274 275 276 0
-274 -275 -276 0
-277 -37 45 0
-277 -45 37 0
277 37 45 0
277 -37 -45 0
-278 -38 42 0
-278 -42 38 0
278 38 42 0
278 -38 -42 0
-279 -39 41 0
-279 -41 39 0
279 39 41 0
279 -39 -41 0
277 278 279 0
-277 -278 -279 0
-280 -37 48 0
-280 -48 37 0
280 37 48 0
280 -37 -48 0
-281 -39 41 0
-281 -41 39 0
281 39 41 0
281 -39 -41 0
-282 -38 42 0
-282 -42 38 0
282 38 42 0
282 -38 -42 0
280 281 282 0
-280 -281 -282 0
-283 -38 42 0
-283 -42 38 0
283 38 42 0
283 -38 -42 0
-284 -37 45 0
-284 -45 37 0
284 37 45 0
284 -37 -45 0
-285 -39 44 0
-285 -44 39 0
285 39 44 0
285 -39 -44 0
283 284 285 0
-283 -284 -285 0
-286 -38 47 0
-286 -47 38 0
286 38 47 0
286 -38 -47 0
-287 -39 44 0
-287 -44 39 0
287 39 44 0
287 -39 -44 0
-288 -37 45 0
-288 -45 37 0
288 37 45 0
288 -37 -45 0
286 287 288 0
-286 -287 -288 0
-289 -39 41 0
-289 -41 39 0
289 39 41 0
289 -39 -41 0
-290 -37 48 0
-290 -48 37 0
290 37 48 0
290 -37 -48 0
-291 -38 47 0
-291 -47 38 0
291 38 47 0
291 -38 -47 0
289 290 291 0
-289 -290 -291 0
-292 -39 44 0
-292 -44 39 0
292 39 44 0
292 -39 -44 0
-293 -38 47 0
-293 -47 38 0
293 38 47 0
293 -38 -47 0
-294 -37 48 0
-294 -48 37 0
294 37 48 0
294 -37 -48 0
292 293 294 0
-292 -293 -294 0
-295 -40 45 0
-295 -45 40 0
295 40 45 0
295 -40 -45 0
-296 -41 39 0
-296 -39 41 0
296 41 39 0
296 -41 -39 0
-297 -42 38 0
-297 -38 42 0
297 42 38 0
297 -42 -38 0
295 296 297 0
-295 -296 -297 0
-298 -40 48 0
-298 -48 40 0
298 40 48 0
298 -40 -48 0
-299 -42 38 0
-299 -38 42 0
299 42 38 0
299 -42 -38 0
-300 -41 39 0
-300 -39 41 0
300 41 39 0
300 -41 -39 0
298 299 300 0
-298 -299 -300 0
-301 -41 39 0
-301 -39 41 0
301 41 39 0
301 -41 -39 0
-302 -40 45 0
-302 -45 40 0
302 40 45 0
302 -40 -45 0
-303 -42 43 0
-303 -43 42 0
303 42 43 0
303 -42 -43 0
301 302 303 0
-301 -302 -303 0
-304 -41 46 0
-304 -46 41 0
304 41 46 0
304 -41 -46 0
-305 -42 43 0
-305 -43 42 0
305 42 43 0
305 -42 -43 0
-306 -40 45 0
-306 -45 40 0
306 40 45 0
306 -40 -45 0
304 305 306 0
-304 -305 -306 0
-307 -42 38 0
-307 -38 42 0
307 42 38 0
307 -42 -38 0
-308 -40 48 0
-308 -48 40 0
308 40 48 0
308 -40 -48 0
-309 -41 46 0
-309 -46 41 0
309 41 46 0
309 -41 -46 0
307 308 309 0
-307 -308 -309 0
-310 -42 43 0
-310 -43 42 0
310 42 43 0
310 -42 -43 0
-311 -41 46 0
-311 -46 41 0
311 41 46 0
311 -41 -46 0
-312 -40 48 0
-312 -48 40 0
312 40 48 0
312 -40 -48 0
310 311 312 0
-310 -311 -312 0
-313 -43 42 0
-313 -42 43 0
313 43 42 0
313 -43 -42 0
-314 -44 39 0
-314 -39 44 0
314 44 39 0
314 -44 -39 0
-315 -45 37 0
-315 -37 45 0
315 45 37 0
315 -45 -37 0
313 314 315 0
-313 -314 -315 0
-316 -43 47 0
-316 -47 43 0
316 43 47 0
316 -43 -47 0
-317 -45 37 0
-317 -37 45 0
317 45 37 0
317 -45 -37 0
-318 -44 39 0
-318 -39 44 0
318 44 39 0
318 -44 -39 0
316 317 318 0
-316 -317 -318 0
-319 -44 39 0
-319 -39 44 0
319 44 39 0
319 -44 -39 0
-320 -43 42 0
-320 -42 43 0
320 43 42 0
320 -43 -42 0
-321 -45 40 0
-321 -40 45 0
321 45 40 0
321 -45 -40 0
319 320 321 0
-319 -320 -321 0
-322 -44 46 0
-322 -46 44 0
322 44 46 0
322 -44 -46 0
-323 -45 40 0
-323 -40 45 0
323 45 40 0
323 -45 -40 0
-324 -43 42 0
-324 -42 43 0
324 43 42 0
324 -43 -42 0
322 323 324 0
-322 -323 -324 0
-325 -45 37 0
-325 -37 45 0
325 45 37 0
325 -45 -37 0
-326 -43 47 0
-326 -47 43 0
326 43 47 0
326 -43 -47 0
-327 -44 46 0
-327 -46 44 0
327 44 46 0
327 -44 -46 0
325 326 327 0
-325 -326 -327 0
-328 -45 40 0
-328 -40 45 0
328 45 40 0
328 -45 -40 0
-329 -44 46 0
-329 -46 44 0
329 44 46 0
329 -44 -46 0
-330 -43 47 0
-330 -47 43 0
330 43 47 0
330 -43 -47 0
328 329 330 0
-328 -329 -330 0
-331 -46 41 0
-331 -41 46 0
331 46 41 0
331 -46 -41 0
-332 -47 38 0
-332 -38 47 0
332 47 38 0
332 -47 -38 0
-333 -48 37 0
-333 -37 48 0
333 48 37 0
333 -48 -37 0
331 332 333 0
-331 -332 -333 0
-334 -46 44 0
-334 -44 46 0
334 46 44 0
334 -46 -44 0
-335 -48 37 0
-335 -37 48 0
335 48 37 0
335 -48 -37 0
-336 -47 38 0
-336 -38 47 0
336 47 38 0
336 -47 -38 0
334 335 336 0
-334 -335 -336 0
-337 -47 38 0
-337 -38 47 0
337 47 38 0
337 -47 -38 0
-338 -46 41 0
-338 -41 46 0
338 46 41 0
338 -46 -41 0
-339 -48 40 0
-339 -40 48 0
339 48 40 0
339 -48 -40 0
337 338 339 0
-337 -338 -339 0
-340 -47 43 0
-340 -43 47 0
340 47 43 0
340 -47 -43 0
-341 -48 40 0
-341 -40 48 0
341 48 40 0
341 -48 -40 0
-342 -46 41 0
-342 -41 46 0
342 46 41 0
342 -46 -41 0
340 341 342 0
-340 -341 -342 0
-343 -48 37 0
-343 -37 48 0
343 48 37 0
343 -48 -37 0
-344 -46 44 0
-344 -44 46 0
344 46 44 0
344 -46 -44 0
-345 -47 43 0
-345 -43 47 0
345 47 43 0
345 -47 -43 0
343 344 345 0
-343 -344 -345 0
-346 -48 40 0
-346 -40 48 0
346 48 40 0
346 -48 -40 0
-347 -47 43 0
-347 -43 47 0
347 47 43 0
347 -47 -43 0
-348 -46 44 0
-348 -44 46 0
348 46 44 0
348 -46 -44 0
346 347 348 0
-346 -347 -348 0
-349 -49 57 0
-349 -57 49 0
349 49 57 0
349 -49 -57 0
-350 -50 54 0
-350 -54 50 0
350 50 54 0
350 -50 -54 0
-351 -51 53 0
-351 -53 51 0
351 51 53 0
351 -51 -53 0
349 350 351 0
-349 -350 -351 0
-352 -49 60 0
-352 -60 49 0
352 49 60 0
352 -49 -60 0
-353 -51 53 0
-353 -53 51 0
353 51 53 0
353 -51 -53 0
-354 -50 54 0
-354 -54 50 0
354 50 54 0
354 -50 -54 0
352 353 354 0
-352 -353 -354 0
-355 -50 54 0
-355 -54 50 0
355 50 54 0
355 -50 -54 0
-356 -49 57 0
-356 -57 49 0
356 49 57 0
356 -49 -57 0
-357 -51 56 0
-357 -56 51 0
357 51 56 0
357 -51 -56 0
355 356 357 0
-355 -356 -357 0
-358 -50 59 0
-358 -59 50 0
358 50 59 0
358 -50 -59 0
-359 -51 56 0
-359 -56 51 0
359 51 56 0
359 -51 -56 0
-360 -49 57 0
-360 -57 49 0
360 49 57 0
360 -49 -57 0
358 359 360 0
-358 -359 -360 0
-361 -51 53 0
-361 -53 51 0
361 51 53 0
361 -51 -53 0
-362 -49 60 0
-362 -60 49 0
362 49 60 0
362 -49 -60 0
-363 -50 59 0
-363 -59 50 0
363 50 59 0
363 -50 -59 0
361 362 363 0
-361 -362 -363 0
-364 -51 56 0
-364 -56 51 0
364 51 56 0
364 -51 -56 0
-365 -50 59 0
-365 -59 50 0
365 50 59 0
365 -50 -59 0
-366 -49 60 0
-366 -60 49 0
366 49 60 0
366 -49 -60 0
364 365 366 0
-364 -365 -366 0
-367 -52 57 0
-367 -57 52 0
367 52 57 0
367 -52 -57 0
-368 -53 51 0
-368 -51 53 0
368 53 51 0
368 -53 -51 0
-369 -54 50 0
-369 -50 54 0
369 54 50 0
369 -54 -50 0
367 368 369 0
-367 -368 -369 0
-370 -52 60 0
-370 -60 52 0
370 52 60 0
370 -52 -60 0
-371 -54 50 0
-371 -50 54 0
371 54 50 0
371 -54 -50 0
-372 -53 51 0
-372 -51 53 0
372 53 51 0
372 -53 -51 0
370 371 372 0
-370 -371 -372 0
-373 -53 51 0
-373 -51 53 0
373 53 51 0
373 -53 -51 0
-374 -52 57 0
-374 -57 52 0
374 52 57 0
374 -52 -57 0
-375 -54 55 0
-375 -55 54 0
375 54 55 0
375 -54 -55 0
373 374 375 0
-373 -374 -375 0
-376 -53 58 0
-376 -58 53 0
376 53 58 0
376 -53 -58 0
-377 -54 55 0
-377 -55 54 0
377 54 55 0
377 -54 -55 0
-378 -52 57 0
-378 -57 52 0
378 52 57 0
378 -52 -57 0
376 377 378 0
-376 -377 -378 0
-379 -54 50 0
-379 -50 54 0
379 54 50 0
379 -54 -50 0
-380 -52 60 0
-380 -60 52 0
380 52 60 0
380 -52 -60 0
-381 -53 58 0
-381 -58 53 0
381 53 58 0
381 -53 -58 0
379 380 381 0
-379 -380 -381 0
-382 -54 55 0
-382 -55 54 0
382 54 55 0
382 -54 -55 0
-383 -53 58 0
-383 -58 53 0
383 53 58 0
383 -53 -58 0
-384 -52 60 0
-384 -60 52 0
384 52 60 0
384 -52 -60 0
382 383 384 0
-382 -383 -384 0
-385 -55 54 0
-385 -54 55 0
385 55 54 0
385 -55 -54 0
-386 -56 51 0
-386 -51 56 0
386 56 51 0
386 -56 -51 0
-387 -57 49 0
-387 -49 57 0
387 57 49 0
387 -57 -49 0
385 386 387 0
-385 -386 -387 0
-388 -55 59 0
-388 -59 55 0
388 55 59 0
388 -55 -59 0
-389 -57 49 0
-389 -49 57 0
389 57 49 0
389 -57 -49 0
-390 -56 51 0
-390 -51 56 0
390 56 51 0
390 -56 -51 0
388 389 390 0
-388 -389 -390 0
-391 -56 51 0
-391 -51 56 0
391 56 51 0
391 -56 -51 0
-392 -55 54 0
-392 -54 55 0
392 55 54 0
392 -55 -54 0
-393 -57 52 0
-393 -52 57 0
393 57 52 0
393 -57 -52 0
391 392 393 0
-391 -392 -393 0
-394 -56 58 0
-394 -58 56 0
394 56 58 0
394 -56 -58 0
-395 -57 52 0
-395 -52 57 0
395 57 52 0
395 -57 -52 0
-396 -55 54 0
-396 -54 55 0
396 55 54 0
396 -55 -54 0
394 395 396 0
-394 -395 -396 0
-397 -57 49 0
-397 -49 57 0
397 57 49 0
397 -57 -49 0
-398 -55 59 0
-398 -59 55 0
398 55 59 0
398 -55 -59 0
-399 -56 58 0
-399 -58 56 0
399 56 58 0
399 -56 -58 0
397 398 399 0
-397 -398 -399 0
-400 -57 52 0
-400 -52 57 0
400 57 52 0
400 -57 -52 0
-401 -56 58 0
-401 -58 56 0
401 56 58 0
401 -56 -58 0
-402 -55 59 0
-402 -59 55 0
402 55 59 0
402 -55 -59 0
400 401 402 0
-400 -401 -402 0
-403 -58 53 0
-403 -53 58 0
403 58 53 0
403 -58 -53 0
-404 -59 50 0
-404 -50 59 0
404 59 50 0
404 -59 -50 0
-405 -60 49 0
-405 -49 60 0
405 60 49 0
405 -60 -49 0
403 404 405 0
-403 -404 -405 0
-406 -58 56 0
-406 -56 58 0
406 58 56 0
406 -58 -56 0
-407 -60 49 0
-407 -49 60 0
407 60 49 0
407 -60 -49 0
-408 -59 50 0
-408 -50 59 0
408 59 50 0
408 -59 -50 0
406 407 408 0
-406 -407 -408 0
-409 -59 50 0
-409 -50 59 0
409 59 50 0
409 -59 -50 0
-410 -58 53 0
-410 -53 58 0
410 58 53 0
410 -58 -53 0
-411 -60 52 0
-411 -52 60 0
411 60 52 0
411 -60 -52 0
409 410 411 0
-409 -410 -411 0
-412 -59 55 0
-412 -55 59 0
412 59 55 0
412 -59 -55 0
-413 -60 52 0
-413 -52 60 0
413 60 52 0
413 -60 -52 0
-414 -58 53 0
-414 -53 58 0
414 58 53 0
414 -58 -53 0
412 413 414 0
-412 -413 -414 0
-415 -60 49 0
-415 -49 60 0
415 60 49 0
415 -60 -49 0
-416 -58 56 0
-416 -56 58 0
416 58 56 0
416 -58 -56 0
-417 -59 55 0
-417 -55 59 0
417 59 55 0
417 -59 -55 0
415 416 417 0
-415 -416 -417 0
-418 -60 52 0
-418 -52 60 0
418 60 52 0
418 -60 -52 0
-419 -59 55 0
-419 -55 59 0
419 59 55 0
419 -59 -55 0
-420 -58 56 0
-420 -56 58 0
420 58 56 0
420 -58 -56 0
418 419 420 0
-418 -419 -420 0
-1 -2 4 -5 7 8 13 14 -16 -17 -19 20 -25 26 28 29 -31 -32 -37 -38 40 -41 43 44 0
-1 -3 4 -6 10 11 13 15 -16 -18 -22 23 -25 27 28 30 -34 -35 -49 -50 52 -53 55 56 0
-2 -1 7 -8 4 5 14 13 -19 -20 -16 17 -37 38 40 41 -43 -44 -25 -26 28 -29 31 32 0
-2 -3 7 -9 10 12 14 15 -19 -21 -22 24 -37 39 40 42 -46 -47 -49 -51 52 -54 58 59 0
-3 -1 10 -11 4 6 15 13 -22 -23 -16 18 -49 50 52 53 -55 -56 -25 -27 28 -30 34 35 0
-3 -2 10 -12 7 9 15 14 -22 -24 -19 21 -49 51 52 54 -58 -59 -37 -39 40 -42 46 47 0
-4 -5 1 -2 8 7 25 26 -28 -29 -31 32 -13 14 16 17 -19 -20 -38 -37 43 -44 40 41 0
-4 -6 1 -3 11 10 25 27 -28 -30 -34 35 -13 15 16 18 -22 -23 -50 -49 55 -56 52 53 0
-5 -4 8 -7 1 2 26 25 -31 -32 -28 29 -38 37 43 44 -40 -41 -13 -14 16 -17 19 20 0
-5 -6 8 -9 11 12 26 27 -31 -33 -34 36 -38 39 43 45 -46 -48 -50 -51 55 -57 58 60 0
-6 -4 11 -10 1 3 27 25 -34 -35 -28 30 -50 49 55 56 -52 -53 -13 -15 16 -18 22 23 0
-6 -5 11 -12 8 9 27 26 -34 -36 -31 33 -50 51 55 57 -58 -60 -38 -39 43 -45 46 48 0
-7 -8 2 -1 5 4 37 38 -40 -41 -43 44 -14 13 19 20 -16 -17 -26 -25 31 -32 28 29 0
-7 -9 2 -3 12 10 37 39 -40 -42 -46 47 -14 15 19 21 -22 -24 -51 -49 58 -59 52 54 0
-8 -7 5 -4 2 1 38 37 -43 -44 -40 41 -26 25 31 32 -28 -29 -14 -13 19 -20 16 17 0
-8 -9 5 -6 12 11 38 39 -43 -45 -46 48 -26 27 31 33 -34 -36 -51 -50 58 -60 55 57 0
-9 -7 12 -10 2 3 39 37 -46 -47 -40 42 -51 49 58 59 -52 -54 -14 -15 19 -21 22 24 0
-9 -8 12 -11 5 6 39 38 -46 -48 -43 45 -51 50 58 60 -55 -57 -26 -27 31 -33 34 36 0
-10 -11 3 -1 6 4 49 50 -52 -53 -55 56 -15 13 22 23 -16 -18 -27 -25 34 -35 28 30 0
-10 -12 3 -2 9 7 49 51 -52 -54 -58 59 -15 14 22 24 -19 -21 -39 -37 46 -47 40 42 0
-11 -10 6 -4 3 1 50 49 -55 -56 -52 53 -27 25 34 35 -28 -30 -15 -13 22 -23 16 18 0
-11 -12 6 -5 9 8 50 51 -55 -57 -58 60 -27 26 34 36 -31 -33 -39 -38 46 -48 43 45 0
-12 -10 9 -7 3 2 51 49 -58 -59 -52 54 -39 37 46 47 -40 -42 -15 -14 22 -24 19 21 0
-12 -11 9 -8 6 5 51 50 -58 -60 -55 57 -39 38 46 48 -43 -45 -27 -26 34 -36 31 33 0
-13 -14 16 -17 19 20 1 2 -4 -5 -7 8 -28 29 25 26 -32 -31 -40 -41 37 -38 44 43 0
-13 -15 16 -18 22 23 1 3 -4 -6 -10 11 -28 30 25 27 -35 -34 -52 -53 49 -50 56 55 0
-14 -13 19 -20 16 17 2 1 -7 -8 -4 5 -40 41 37 38 -44 -43 -28 -29 25 -26 32 31 0
-14 -15 19 -21 22 24 2 3 -7 -9 -10 12 -40 42 37 39 -47 -46 -52 -54 49 -51 59 58 0
-15 -13 22 -23 16 18 3 1 -10 -11 -4 6 -52 53 49 50 -56 -55 -28 -30 25 -27 35 34 0
-15 -14 22 -24 19 21 3 2 -10 -12 -7 9 -52 54 49 51 -59 -58 -40 -42 37 -39 47 46 0
-16 -17 13 -14 20 19 28 29 -25 -26 -32 31 -1 2 4 5 -7 -8 -41 -40 44 -43 37 38 0
-16 -18 13 -15 23 22 28 30 -25 -27 -35 34 -1 3 4 6 -10 -11 -53 -52 56 -55 49 50 0
-17 -16 20 -19 13 14 29 28 -32 -31 -25 26 -41 40 44 43 -37 -38 -1 -2 4 -5 7 8 0
-17 -18 20 -21 23 24 29 30 -32 -33 -35 36 -41 42 44 45 -47 -48 -53 -54 56 -57 59 60 0
-18 -16 23 -22 13 15 30 28 -35 -34 -25 27 -53 52 56 55 -49 -50 -1 -3 4 -6 10 11 0
-18 -17 23 -24 20 21 30 29 -35 -36 -32 33 -53 54 56 57 -59 -60 -41 -42 44 -45 47 48 0
-19 -20 14 -13 17 16 40 41 -37 -38 -44 43 -2 1 7 8 -4 -5 -29 -28 32 -31 25 26 0
-19 -21 14 -15 24 22 40 42 -37 -39 -47 46 -2 3 7 9 -10 -12 -54 -52 59 -58 49 51 0
-20 -19 17 -16 14 13 41 40 -44 -43 -37 38 -29 28 32 31 -25 -26 -2 -1 7 -8 4 5 0
-20 -21 17 -18 24 23 41 42 -44 -45 -47 48 -29 30 32 33 -35 -36 -54 -53 59 -60 56 57 0
-21 -19 24 -22 14 15 42 40 -47 -46 -37 39 -54 52 59 58 -49 -51 -2 -3 7 -9 10 12 0
-21 -20 24 -23 17 18 42 41 -47 -48 -44 45 -54 53 59 60 -56 -57 -29 -30 32 -33 35 36 0
-22 -23 15 -13 18 16 52 53 -49 -50 -56 55 -3 1 10 11 -4 -6 -30 -28 35 -34 25 27 0
-22 -24 15 -14 21 19 52 54 -49 -51 -59 58 -3 2 10 12 -7 -9 -42 -40 47 -46 37 39 0
-23 -22 18 -16 15 13 53 52 -56 -55 -49 50 -30 28 35 34 -25 -27 -3 -1 10 -11 4 6 0
-23 -24 18 -17 21 20 53 54 -56 -57 -59 60 -30 29 35 36 -32 -33 -42 -41 47 -48 44 45 0
-24 -22 21 -19 15 14 54 52 -59 -58 -49 51 -42 40 47 46 -37 -39 -3 -2 10 -12 7 9 0
-24 -23 21 -20 18 17 54 53 -59 -60 -56 57 -42 41 47 48 -44 -45 -30 -29 35 -36 32 33 0
-25 -26 28 -29 31 32 4 5 -1 -2 -8 7 -16 17 13 14 -20 -19 -43 -44 38 -37 41 40 0
-25 -27 28 -30 34 35 4 6 -1 -3 -11 10 -16 18 13 15 -23 -22 -55 -56 50 -49 53 52 0
-26 -25 31 -32 28 29 5 4 -8 -7 -1 2 -43 44 38 37 -41 -40 -16 -17 13 -14 20 19 0
-26 -27 31 -33 34 36 5 6 -8 -9 -11 12 -43 45 38 39 -48 -46 -55 -57 50 -51 60 58 0
-27 -25 34 -35 28 30 6 4 -11 -10 -1 3 -55 56 50 49 -53 -52 -16 -18 13 -15 23 22 0
-27 -26 34 -36 31 33 6 5 -11 -12 -8 9 -55 57 50 51 -60 -58 -43 -45 38 -39 48 46 0
-28 -29 25 -26 32 31 16 17 -13 -14 -20 19 -4 5 1 2 -8 -7 -44 -43 41 -40 38 37 0
-28 -30 25 -27 35 34 16 18 -13 -15 -23 22 -4 6 1 3 -11 -10 -56 -55 53 -52 50 49 0
-29 -28 32 -31 25 26 17 16 -20 -19 -13 14 -44 43 41 40 -38 -37 -4 -5 1 -2 8 7 0
-29 -30 32 -33 35 36 17 18 -20 -21 -23 24 -44 45 41 42 -48 -47 -56 -57 53 -54 60 59 0
-30 -28 35 -34 25 27 18 16 -23 -22 -13 15 -56 55 53 52 -50 -49 -4 -6 1 -3 11 10 0
-30 -29 35 -36 32 33 18 17 -23 -24 -20 21 -56 57 53 54 -60 -59 -44 -45 41 -42 48 47 0
-31 -32 26 -25 29 28 43 44 -38 -37 -41 40 -5 4 8 7 -1 -2 -17 -16 20 -19 13 14 0
-31 -33 26 -27 36 34 43 45 -38 -39 -48 46 -5 6 8 9 -11 -12 -57 -55 60 -58 50 51 0
-32 -31 29 -28 26 25 44 43 -41 -40 -38 37 -17 16 20 19 -13 -14 -5 -4 8 -7 1 2 0
-32 -33 29 -30 36 35 44 45 -41 -42 -48 47 -17 18 20 21 -23 -24 -57 -56 60 -59 53 54 0
-33 -31 36 -34 26 27 45 43 -48 -46 -38 39 -57 55 60 58 -50 -51 -5 -6 8 -9 11 12 0
-33 -32 36 -35 29 30 45 44 -48 -47 -41 42 -57 56 60 59 -53 -54 -17 -18 20 -21 23 24 0
-34 -35 27 -25 30 28 55 56 -50 -49 -53 52 -6 4 11 10 -1 -3 -18 -16 23 -22 13 15 0
-34 -36 27 -26 33 31 55 57 -50 -51 -60 58 -6 5 11 12 -8 -9 -45 -43 48 -46 38 39 0
-35 -34 30 -28 27 25 56 55 -53 -52 -50 49 -18 16 23 22 -13 -15 -6 -4 11 -10 1 3 0
-35 -36 30 -29 33 32 56 57 -53 -54 -60 59 -18 17 23 24 -20 -21 -45 -44 48 -47 41 42 0
-36 -34 33 -31 27 26 57 55 -60 -58 -50 51 -45 43 48 46 -38 -39 -6 -5 11 -12 8 9 0
-36 -35 33 -32 30 29 57 56 -60 -59 -53 54 -45 44 48 47 -41 -42 -18 -17 23 -24 20 21 0
-37 -38 40 -41 43 44 7 8 -2 -1 -5 4 -19 20 14 13 -17 -16 -31 -32 26 -25 29 28 0
-37 -39 40 -42 46 47 7 9 -2 -3 -12 10 -19 21 14 15 -24 -22 -58 -59 51 -49 54 52 0
-38 -37 43 -44 40 41 8 7 -5 -4 -2 1 -31 32 26 25 -29 -28 -19 -20 14 -13 17 16 0
-38 -39 43 -45 46 48 8 9 -5 -6 -12 11 -31 33 26 27 -36 -34 -58 -60 51 -50 57 55 0
-39 -37 46 -47 40 42 9 7 -12 -10 -2 3 -58 59 51 49 -54 -52 -19 -21 14 -15 24 22 0
-39 -38 46 -48 43 45 9 8 -12 -11 -5 6 -58 60 51 50 -57 -55 -31 -33 26 -27 36 34 0
-40 -41 37 -38 44 43 19 20 -14 -13 -17 16 -7 8 2 1 -5 -4 -32 -31 29 -28 26 25 0
-40 -42 37 -39 47 46 19 21 -14 -15 -24 22 -7 9 2 3 -12 -10 -59 -58 54 -52 51 49 0
-41 -40 44 -43 37 38 20 19 -17 -16 -14 13 -32 31 29 28 -26 -25 -7 -8 2 -1 5 4 0
-41 -42 44 -45 47 48 20 21 -17 -18 -24 23 -32 33 29 30 -36 -35 -59 -60 54 -53 57 56 0
-42 -40 47 -46 37 39 21 19 -24 -22 -14 15 -59 58 54 52 -51 -49 -7 -9 2 -3 12 10 0
-42 -41 47 -48 44 45 21 20 -24 -23 -17 18 -59 60 54 53 -57 -56 -32 -33 29 -30 36 35 0
-43 -44 38 -37 41 40 31 32 -26 -25 -29 28 -8 7 5 4 -2 -1 -20 -19 17 -16 14 13 0
-43 -45 38 -39 48 46 31 33 -26 -27 -36 34 -8 9 5 6 -12 -11 -60 -58 57 -55 51 50 0
-44 -43 41 -40 38 37 32 31 -29 -28 -26 25 -20 19 17 16 -14 -13 -8 -7 5 -4 2 1 0
-44 -45 41 -42 48 47 32 33 -29 -30 -36 35 -20 21 17 18 -24 -23 -60 -59 57 -56 54 53 0
-45 -43 48 -46 38 39 33 31 -36 -34 -26 27 -60 58 57 55 -51 -50 -8 -9 5 -6 12 11 0
-45 -44 48 -47 41 42 33 32 -36 -35 -29 30 -60 59 57 56 -54 -53 -20 -21 17 -18 24 23 0
-46 -47 39 -37 42 40 58 59 -51 -49 -54 52 -9 7 12 10 -2 -3 -21 -19 24 -22 14 15 0
-46 -48 39 -38 45 43 58 60 -51 -50 -57 55 -9 8 12 11 -5 -6 -33 -31 36 -34 26 27 0
-47 -46 42 -40 39 37 59 58 -54 -52 -51 49 -21 19 24 22 -14 -15 -9 -7 12 -10 2 3 0
-47 -48 42 -41 45 44 59 60 -54 -53 -57 56 -21 20 24 23 -17 -18 -33 -32 36 -35 29 30 0
-48 -46 45 -43 39 38 60 58 -57 -55 -51 50 -33 31 36 34 -26 -27 -9 -8 12 -11 5 6 0
-48 -47 45 -44 42 41 60 59 -57 -56 -54 53 -33 32 36 35 -29 -30 -21 -20 24 -23 17 18 0
-49 -50 52 -53 55 56 10 11 -3 -1 -6 4 -22 23 15 13 -18 -16 -34 -35 27 -25 30 28 0
-49 -51 52 -54 58 59 10 12 -3 -2 -9 7 -22 24 15 14 -21 -19 -46 -47 39 -37 42 40 0
-50 -49 55 -56 52 53 11 10 -6 -4 -3 1 -34 35 27 25 -30 -28 -22 -23 15 -13 18 16 0
-50 -51 55 -57 58 60 11 12 -6 -5 -9 8 -34 36 27 26 -33 -31 -46 -48 39 -38 45 43 0
-51 -49 58 -59 52 54 12 10 -9 -7 -3 2 -46 47 39 37 -42 -40 -22 -24 15 -14 21 19 0
-51 -50 58 -60 55 57 12 11 -9 -8 -6 5 -46 48 39 38 -45 -43 -34 -36 27 -26 33 31 0
-52 -53 49 -50 56 55 22 23 -15 -13 -18 16 -10 11 3 1 -6 -4 -35 -34 30 -28 27 25 0
-52 -54 49 -51 59 58 22 24 -15 -14 -21 19 -10 12 3 2 -9 -7 -47 -46 42 -40 39 37 0
-53 -52 56 -55 49 50 23 22 -18 -16 -15 13 -35 34 30 28 -27 -25 -10 -11 3 -1 6 4 0
-53 -54 56 -57 59 60 23 24 -18 -17 -21 20 -35 36 30 29 -33 -32 -47 -48 42 -41 45 44 0
-54 -52 59 -58 49 51 24 22 -21 -19 -15 14 -47 46 42 40 -39 -37 -10 -12 3 -2 9 7 0
-54 -53 59 -60 56 57 24 23 -21 -20 -18 17 -47 48 42 41 -45 -44 -35 -36 30 -29 33 32 0
-55 -56 50 -49 53 52 34 35 -27 -25 -30 28 -11 10 6 4 -3 -1 -23 -22 18 -16 15 13 0
-55 -57 50 -51 60 58 34 36 -27 -26 -33 31 -11 12 6 5 -9 -8 -48 -46 45 -43 39 38 0
-56 -55 53 -52 50 49 35 34 -30 -28 -27 25 -23 22 18 16 -15 -13 -11 -10 6 -4 3 1 0
-56 -57 53 -54 60 59 35 36 -30 -29 -33 32 -23 24 18 17 -21 -20 -48 -47 45 -44 42 41 0
-57 -55 60 -58 50 51 36 34 -33 -31 -27 26 -48 46 45 43 -39 -38 -11 -12 6 -5 9 8 0
-57 -56 60 -59 53 54 36 35 -33 -32 -30 29 -48 47 45 44 -42 -41 -23 -24 18 -17 21 20 0
-58 -59 51 -49 54 52 46 47 -39 -37 -42 40 -12 10 9 7 -3 -2 -24 -22 21 -19 15 14 0
-58 -60 51 -50 57 55 46 48 -39 -38 -45 43 -12 11 9 8 -6 -5 -36 -34 33 -31 27 26 0
-59 -58 54 -52 51 49 47 46 -42 -40 -39 37 -24 22 21 19 -15 -14 -12 -10 9 -7 3 2 0
-59 -60 54 -53 57 56 47 48 -42 -41 -45 44 -24 23 21 20 -18 -17 -36 -35 33 -32 30 29 0
-60 -58 57 -55 51 50 48 46 -45 -43 -39 38 -36 34 33 31 -27 -26 -12 -11 9 -8 6 5 0
-60 -59 57 -56 54 53 48 47 -45 -44 -42 41 -36 35 33 32 -30 -29 -24 -23 21 -20 18 17 0
